clingo version 5.6.2
Reading from ./campionato.cl
Solving...
Answer: 1
assegna(1,bulls,celtics) assegna(1,cavaliers,seventysixers) assegna(1,pacers,mavericks) assegna(1,pistons,lakers) assegna(1,nets,warriors) assegna(1,nuggets,rockets) assegna(1,clippers,heat) assegna(2,cavaliers,nets) assegna(2,warriors,seventysixers) assegna(2,lakers,bulls) assegna(2,pistons,clippers) assegna(2,rockets,pacers) assegna(2,mavericks,heat) assegna(2,celtics,nuggets) assegna(3,seventysixers,celtics) assegna(3,clippers,cavaliers) assegna(3,rockets,mavericks) assegna(3,nuggets,lakers) assegna(3,bulls,pistons) assegna(3,heat,warriors) assegna(3,nets,pacers) assegna(4,pistons,celtics) assegna(4,seventysixers,bulls) assegna(4,pacers,cavaliers) assegna(4,clippers,mavericks) assegna(4,heat,lakers) assegna(4,nets,rockets) assegna(4,warriors,nuggets) assegna(5,mavericks,nets) assegna(5,lakers,seventysixers) assegna(5,cavaliers,pistons) assegna(5,rockets,warriors) assegna(5,nuggets,clippers) assegna(5,bulls,pacers) assegna(5,celtics,heat) assegna(6,bulls,nets) assegna(6,warriors,cavaliers) assegna(6,seventysixers,mavericks) assegna(6,celtics,lakers) assegna(6,pacers,pistons) assegna(6,clippers,rockets) assegna(6,heat,nuggets) assegna(7,warriors,celtics) assegna(7,nets,seventysixers) assegna(7,cavaliers,bulls) assegna(7,pacers,clippers) assegna(7,lakers,rockets) assegna(7,pistons,heat) assegna(7,mavericks,nuggets) assegna(8,rockets,celtics) assegna(8,pistons,nets) assegna(8,clippers,seventysixers) assegna(8,nuggets,cavaliers) assegna(8,bulls,lakers) assegna(8,mavericks,warriors) assegna(8,heat,pacers) assegna(9,heat,bulls) assegna(9,celtics,mavericks) assegna(9,seventysixers,pistons) assegna(9,pacers,warriors) assegna(9,lakers,clippers) assegna(9,cavaliers,rockets) assegna(9,nets,nuggets) assegna(10,nuggets,celtics) assegna(10,warriors,nets) assegna(10,mavericks,cavaliers) assegna(10,rockets,pistons) assegna(10,bulls,clippers) assegna(10,lakers,pacers) assegna(10,seventysixers,heat) assegna(11,nets,celtics) assegna(11,pacers,seventysixers) assegna(11,pistons,mavericks) assegna(11,cavaliers,lakers) assegna(11,bulls,warriors) assegna(11,heat,rockets) assegna(11,clippers,nuggets) assegna(12,rockets,nets) assegna(12,nuggets,bulls) assegna(12,seventysixers,lakers) assegna(12,celtics,pistons) assegna(12,clippers,warriors) assegna(12,mavericks,pacers) assegna(12,cavaliers,heat) assegna(13,lakers,celtics) assegna(13,rockets,seventysixers) assegna(13,bulls,cavaliers) assegna(13,heat,mavericks) assegna(13,warriors,pistons) assegna(13,nets,clippers) assegna(13,pacers,nuggets) assegna(14,cavaliers,celtics) assegna(14,nets,bulls) assegna(14,lakers,warriors) assegna(14,seventysixers,clippers) assegna(14,mavericks,rockets) assegna(14,pacers,heat) assegna(14,pistons,nuggets) assegna(15,heat,nets) assegna(15,celtics,bulls) assegna(15,seventysixers,cavaliers) assegna(15,nuggets,mavericks) assegna(15,rockets,lakers) assegna(15,clippers,pistons) assegna(15,warriors,pacers) assegna(16,bulls,seventysixers) assegna(16,lakers,mavericks) assegna(16,nets,pistons) assegna(16,cavaliers,warriors) assegna(16,celtics,clippers) assegna(16,pacers,rockets) assegna(16,nuggets,heat) assegna(17,pacers,celtics) assegna(17,seventysixers,nets) assegna(17,mavericks,bulls) assegna(17,pistons,cavaliers) assegna(17,clippers,lakers) assegna(17,warriors,heat) assegna(17,rockets,nuggets) assegna(18,nuggets,seventysixers) assegna(18,cavaliers,mavericks) assegna(18,nets,lakers) assegna(18,heat,pistons) assegna(18,celtics,warriors) assegna(18,bulls,rockets) assegna(18,clippers,pacers) assegna(19,heat,celtics) assegna(19,pistons,bulls) assegna(19,nets,cavaliers) assegna(19,mavericks,clippers) assegna(19,warriors,rockets) assegna(19,seventysixers,pacers) assegna(19,lakers,nuggets) assegna(20,nuggets,nets) assegna(20,clippers,bulls) assegna(20,celtics,cavaliers) assegna(20,pacers,lakers) assegna(20,mavericks,pistons) assegna(20,seventysixers,warriors) assegna(20,rockets,heat) assegna(21,celtics,seventysixers) assegna(21,nets,mavericks) assegna(21,warriors,clippers) assegna(21,pistons,rockets) assegna(21,cavaliers,pacers) assegna(21,lakers,heat) assegna(21,bulls,nuggets) assegna(22,mavericks,celtics) assegna(22,clippers,nets) assegna(22,heat,seventysixers) assegna(22,pacers,bulls) assegna(22,rockets,cavaliers) assegna(22,warriors,lakers) assegna(22,nuggets,pistons) assegna(23,celtics,nets) assegna(23,lakers,cavaliers) assegna(23,bulls,mavericks) assegna(23,nuggets,warriors) assegna(23,heat,clippers) assegna(23,seventysixers,rockets) assegna(23,pistons,pacers) assegna(24,mavericks,seventysixers) assegna(24,warriors,bulls) assegna(24,lakers,pistons) assegna(24,rockets,clippers) assegna(24,celtics,pacers) assegna(24,nets,heat) assegna(24,cavaliers,nuggets) assegna(25,clippers,celtics) assegna(25,pacers,nets) assegna(25,rockets,bulls) assegna(25,heat,cavaliers) assegna(25,mavericks,lakers) assegna(25,pistons,warriors) assegna(25,seventysixers,nuggets) assegna(26,lakers,nets) assegna(26,pistons,seventysixers) assegna(26,warriors,mavericks) assegna(26,cavaliers,clippers) assegna(26,celtics,rockets) assegna(26,nuggets,pacers) assegna(26,bulls,heat)
SATISFIABLE

Models       : 1+
Calls        : 1
Time         : 48.562s (Solving: 48.34s 1st Model: 48.34s Unsat: 0.00s)
CPU Time     : 48.534s
